5 5
1 18 4 88 2 66 0 48 3 33
3 58 4 83 0 73 2 28 1 35
1 10 2 65 3 42 0 85 4 9
4 60 2 15 0 99 1 57 3 69
2 22 3 64 4 41 0 87 1 71
-1
0 3 4 5
0 3 5
0 1 3 4 5
0 1 2 3 5
0 3 5
-2
195 336 302
295 304
12 186 208 255
74 110 272 455
189 336

480 7
17 7 23 3 13
10 0 18 9 24
20 16 11 2 8
5 21 12 19 4
15 6 22 1 14
